NAME plusBCPIns_10_7_6.txt
ROWS
 N cost
 L KL
 L C0,2
 L C0,9
 L C1,2
 L C1,3
 L C1,7
 L C2,4
 L C2,9
 L C3,5
 L C3,7
 L C3,9
 L C4,9
 L C5,8
 L C6,8
 L C7,9
 L E0,1
 L E0,3
 L E0,4
 L E0,5
 L E0,6
 L E0,7
 L E0,8
 L E1,4
 L E1,5
 L E1,6
 L E1,8
 L E1,9
 L E2,3
 L E2,5
 L E2,6
 L E2,7
 L E2,8
 L E3,4
 L E3,6
 L E3,8
 L E4,5
 L E4,6
 L E4,7
 L E4,8
 L E5,6
 L E5,7
 L E5,9
 L E6,7
 L E6,9
 L E7,8
 L E8,9
 L S0,1,2
 L S0,3,9
 L S0,4,2
 L S0,4,9
 L S0,7,9
 L S1,4,2
 L S1,5,3
 L S1,9,2
 L S1,9,3
 L S1,9,7
 L S2,3,1
 L S2,3,9
 L S2,7,1
 L S2,7,9
 L S3,4,9
 L S3,8,5
 L S4,7,9
 L S5,6,8
 L S5,7,3
 L S5,9,3
 L I0,1
 L I0,3
 L I0,4
 L I0,5
 L I0,6
 L I0,7
 L I0,8
 L I1,4
 L I1,5
 L I1,6
 L I1,8
 L I1,9
 L I2,3
 L I2,5
 L I2,6
 L I2,7
 L I2,8
 L I3,4
 L I3,6
 L I3,8
 L I4,5
 L I4,6
 L I4,7
 L I4,8
 L I5,6
 L I5,7
 L I5,9
 L I6,7
 L I6,9
 L I7,8
 L I8,9
COLUMNS
 w0,1 cost 0
 w0,1 KL 1
 w0,1 I0,1 1
 w0,3 cost 0
 w0,3 KL 1
 w0,3 I0,3 1
 w0,4 cost 0
 w0,4 KL 1
 w0,4 I0,4 1
 w0,5 cost 0
 w0,5 KL 1
 w0,5 I0,5 1
 w0,6 cost 0
 w0,6 KL 1
 w0,6 I0,6 1
 w0,7 cost 0
 w0,7 KL 1
 w0,7 I0,7 1
 w0,8 cost 0
 w0,8 KL 1
 w0,8 I0,8 1
 w1,4 cost 0
 w1,4 KL 1
 w1,4 I1,4 1
 w1,5 cost 0
 w1,5 KL 1
 w1,5 I1,5 1
 w1,6 cost 0
 w1,6 KL 1
 w1,6 I1,6 1
 w1,8 cost 0
 w1,8 KL 1
 w1,8 I1,8 1
 w1,9 cost 0
 w1,9 KL 1
 w1,9 I1,9 1
 w2,3 cost 0
 w2,3 KL 1
 w2,3 I2,3 1
 w2,5 cost 0
 w2,5 KL 1
 w2,5 I2,5 1
 w2,6 cost 0
 w2,6 KL 1
 w2,6 I2,6 1
 w2,7 cost 0
 w2,7 KL 1
 w2,7 I2,7 1
 w2,8 cost 0
 w2,8 KL 1
 w2,8 I2,8 1
 w3,4 cost 0
 w3,4 KL 1
 w3,4 I3,4 1
 w3,6 cost 0
 w3,6 KL 1
 w3,6 I3,6 1
 w3,8 cost 0
 w3,8 KL 1
 w3,8 I3,8 1
 w4,5 cost 0
 w4,5 KL 1
 w4,5 I4,5 1
 w4,6 cost 0
 w4,6 KL 1
 w4,6 I4,6 1
 w4,7 cost 0
 w4,7 KL 1
 w4,7 I4,7 1
 w4,8 cost 0
 w4,8 KL 1
 w4,8 I4,8 1
 w5,6 cost 0
 w5,6 KL 1
 w5,6 I5,6 1
 w5,7 cost 0
 w5,7 KL 1
 w5,7 I5,7 1
 w5,9 cost 0
 w5,9 KL 1
 w5,9 I5,9 1
 w6,7 cost 0
 w6,7 KL 1
 w6,7 I6,7 1
 w6,9 cost 0
 w6,9 KL 1
 w6,9 I6,9 1
 w7,8 cost 0
 w7,8 KL 1
 w7,8 I7,8 1
 w8,9 cost 0
 w8,9 KL 1
 w8,9 I8,9 1
 y0,1 cost 0
 y0,1 E0,1 -1
 y0,1 I0,1 1
 y0,1 S0,1,2 -1
 y0,3 cost 0
 y0,3 E0,3 -1
 y0,3 I0,3 1
 y0,3 S0,3,9 -1
 y0,4 cost 0
 y0,4 E0,4 -1
 y0,4 I0,4 1
 y0,4 S0,4,2 -1
 y0,4 S0,4,9 -1
 y0,5 cost 0
 y0,5 E0,5 -1
 y0,5 I0,5 1
 y0,6 cost 0
 y0,6 E0,6 -1
 y0,6 I0,6 1
 y0,7 cost 0
 y0,7 E0,7 -1
 y0,7 I0,7 1
 y0,7 S0,7,9 -1
 y0,8 cost 0
 y0,8 E0,8 -1
 y0,8 I0,8 1
 y1,4 cost 0
 y1,4 E1,4 -1
 y1,4 I1,4 1
 y1,4 S1,4,2 -1
 y1,5 cost 0
 y1,5 E1,5 -1
 y1,5 I1,5 1
 y1,5 S1,5,3 -1
 y1,6 cost 0
 y1,6 E1,6 -1
 y1,6 I1,6 1
 y1,8 cost 0
 y1,8 E1,8 -1
 y1,8 I1,8 1
 y1,9 cost 0
 y1,9 E1,9 -1
 y1,9 I1,9 1
 y1,9 S1,9,2 -1
 y1,9 S1,9,3 -1
 y1,9 S1,9,7 -1
 y2,3 cost 0
 y2,3 E2,3 -1
 y2,3 I2,3 1
 y2,3 S2,3,1 -1
 y2,3 S2,3,9 -1
 y2,5 cost 0
 y2,5 E2,5 -1
 y2,5 I2,5 1
 y2,6 cost 0
 y2,6 E2,6 -1
 y2,6 I2,6 1
 y2,7 cost 0
 y2,7 E2,7 -1
 y2,7 I2,7 1
 y2,7 S2,7,1 -1
 y2,7 S2,7,9 -1
 y2,8 cost 0
 y2,8 E2,8 -1
 y2,8 I2,8 1
 y3,4 cost 0
 y3,4 E3,4 -1
 y3,4 I3,4 1
 y3,4 S3,4,9 -1
 y3,6 cost 0
 y3,6 E3,6 -1
 y3,6 I3,6 1
 y3,8 cost 0
 y3,8 E3,8 -1
 y3,8 I3,8 1
 y3,8 S3,8,5 -1
 y4,5 cost 0
 y4,5 E4,5 -1
 y4,5 I4,5 1
 y4,6 cost 0
 y4,6 E4,6 -1
 y4,6 I4,6 1
 y4,7 cost 0
 y4,7 E4,7 -1
 y4,7 I4,7 1
 y4,7 S4,7,9 -1
 y4,8 cost 0
 y4,8 E4,8 -1
 y4,8 I4,8 1
 y5,6 cost 0
 y5,6 E5,6 -1
 y5,6 I5,6 1
 y5,6 S5,6,8 -1
 y5,7 cost 0
 y5,7 E5,7 -1
 y5,7 I5,7 1
 y5,7 S5,7,3 -1
 y5,9 cost 0
 y5,9 E5,9 -1
 y5,9 I5,9 1
 y5,9 S5,9,3 -1
 y6,7 cost 0
 y6,7 E6,7 -1
 y6,7 I6,7 1
 y6,9 cost 0
 y6,9 E6,9 -1
 y6,9 I6,9 1
 y7,8 cost 0
 y7,8 E7,8 -1
 y7,8 I7,8 1
 y8,9 cost 0
 y8,9 E8,9 -1
 y8,9 I8,9 1
 x0 cost 1
 x0 E0,1 1 
 x0 E0,3 1 
 x0 E0,4 1 
 x0 E0,5 1 
 x0 E0,6 1 
 x0 E0,7 1 
 x0 E0,8 1 
 x0 S0,1,2 1
 x0 S0,3,9 1
 x0 S0,4,2 1
 x0 S0,4,9 1
 x0 S0,7,9 1
 x0 C0,2 1 
 x0 C0,9 1 
 x1 cost 1
 x1 E0,1 1 
 x1 E1,4 1 
 x1 E1,5 1 
 x1 E1,6 1 
 x1 E1,8 1 
 x1 E1,9 1 
 x1 S0,1,2 1
 x1 S1,4,2 1
 x1 S1,5,3 1
 x1 S1,9,2 1
 x1 S1,9,3 1
 x1 S1,9,7 1
 x1 S2,3,1 1
 x1 S2,7,1 1
 x1 C1,2 1 
 x1 C1,3 1 
 x1 C1,7 1 
 x2 cost 1
 x2 E2,3 1 
 x2 E2,5 1 
 x2 E2,6 1 
 x2 E2,7 1 
 x2 E2,8 1 
 x2 S0,1,2 1
 x2 S0,4,2 1
 x2 S1,4,2 1
 x2 S1,9,2 1
 x2 S2,3,1 1
 x2 S2,3,9 1
 x2 S2,7,1 1
 x2 S2,7,9 1
 x2 C0,2 1 
 x2 C1,2 1 
 x2 C2,4 1 
 x2 C2,9 1 
 x3 cost 1
 x3 E0,3 1 
 x3 E2,3 1 
 x3 E3,4 1 
 x3 E3,6 1 
 x3 E3,8 1 
 x3 S0,3,9 1
 x3 S1,5,3 1
 x3 S1,9,3 1
 x3 S2,3,1 1
 x3 S2,3,9 1
 x3 S3,4,9 1
 x3 S3,8,5 1
 x3 S5,7,3 1
 x3 S5,9,3 1
 x3 C1,3 1 
 x3 C3,5 1 
 x3 C3,7 1 
 x3 C3,9 1 
 x4 cost 1
 x4 E0,4 1 
 x4 E1,4 1 
 x4 E3,4 1 
 x4 E4,5 1 
 x4 E4,6 1 
 x4 E4,7 1 
 x4 E4,8 1 
 x4 S0,4,2 1
 x4 S0,4,9 1
 x4 S1,4,2 1
 x4 S3,4,9 1
 x4 S4,7,9 1
 x4 C2,4 1 
 x4 C4,9 1 
 x5 cost 1
 x5 E0,5 1 
 x5 E1,5 1 
 x5 E2,5 1 
 x5 E4,5 1 
 x5 E5,6 1 
 x5 E5,7 1 
 x5 E5,9 1 
 x5 S1,5,3 1
 x5 S3,8,5 1
 x5 S5,6,8 1
 x5 S5,7,3 1
 x5 S5,9,3 1
 x5 C3,5 1 
 x5 C5,8 1 
 x6 cost 1
 x6 E0,6 1 
 x6 E1,6 1 
 x6 E2,6 1 
 x6 E3,6 1 
 x6 E4,6 1 
 x6 E5,6 1 
 x6 E6,7 1 
 x6 E6,9 1 
 x6 S5,6,8 1
 x6 C6,8 1 
 x7 cost 1
 x7 E0,7 1 
 x7 E2,7 1 
 x7 E4,7 1 
 x7 E5,7 1 
 x7 E6,7 1 
 x7 E7,8 1 
 x7 S0,7,9 1
 x7 S1,9,7 1
 x7 S2,7,1 1
 x7 S2,7,9 1
 x7 S4,7,9 1
 x7 S5,7,3 1
 x7 C1,7 1 
 x7 C3,7 1 
 x7 C7,9 1 
 x8 cost 1
 x8 E0,8 1 
 x8 E1,8 1 
 x8 E2,8 1 
 x8 E3,8 1 
 x8 E4,8 1 
 x8 E7,8 1 
 x8 E8,9 1 
 x8 S3,8,5 1
 x8 S5,6,8 1
 x8 C5,8 1 
 x8 C6,8 1 
 x9 cost 1
 x9 E1,9 1 
 x9 E5,9 1 
 x9 E6,9 1 
 x9 E8,9 1 
 x9 S0,3,9 1
 x9 S0,4,9 1
 x9 S0,7,9 1
 x9 S1,9,2 1
 x9 S1,9,3 1
 x9 S1,9,7 1
 x9 S2,3,9 1
 x9 S2,7,9 1
 x9 S3,4,9 1
 x9 S4,7,9 1
 x9 S5,9,3 1
 x9 C0,9 1 
 x9 C2,9 1 
 x9 C3,9 1 
 x9 C4,9 1 
 x9 C7,9 1 
RHS
 rhs KL 8
 rhs C0,2 1
 rhs C0,9 1
 rhs C1,2 1
 rhs C1,3 1
 rhs C1,7 1
 rhs C2,4 1
 rhs C2,9 1
 rhs C3,5 1
 rhs C3,7 1
 rhs C3,9 1
 rhs C4,9 1
 rhs C5,8 1
 rhs C6,8 1
 rhs C7,9 1
 rhs S0,1,2 1
 rhs S0,3,9 1
 rhs S0,4,2 1
 rhs S0,4,9 1
 rhs S0,7,9 1
 rhs S1,4,2 1
 rhs S1,5,3 1
 rhs S1,9,2 1
 rhs S1,9,3 1
 rhs S1,9,7 1
 rhs S2,3,1 1
 rhs S2,3,9 1
 rhs S2,7,1 1
 rhs S2,7,9 1
 rhs S3,4,9 1
 rhs S3,8,5 1
 rhs S4,7,9 1
 rhs S5,6,8 1
 rhs S5,7,3 1
 rhs S5,9,3 1
 rhs E0,1 1
 rhs I0,1 1
 rhs E0,3 1
 rhs I0,3 1
 rhs E0,4 1
 rhs I0,4 1
 rhs E0,5 1
 rhs I0,5 1
 rhs E0,6 1
 rhs I0,6 1
 rhs E0,7 1
 rhs I0,7 1
 rhs E0,8 1
 rhs I0,8 1
 rhs E1,4 1
 rhs I1,4 1
 rhs E1,5 1
 rhs I1,5 1
 rhs E1,6 1
 rhs I1,6 1
 rhs E1,8 1
 rhs I1,8 1
 rhs E1,9 1
 rhs I1,9 1
 rhs E2,3 1
 rhs I2,3 1
 rhs E2,5 1
 rhs I2,5 1
 rhs E2,6 1
 rhs I2,6 1
 rhs E2,7 1
 rhs I2,7 1
 rhs E2,8 1
 rhs I2,8 1
 rhs E3,4 1
 rhs I3,4 1
 rhs E3,6 1
 rhs I3,6 1
 rhs E3,8 1
 rhs I3,8 1
 rhs E4,5 1
 rhs I4,5 1
 rhs E4,6 1
 rhs I4,6 1
 rhs E4,7 1
 rhs I4,7 1
 rhs E4,8 1
 rhs I4,8 1
 rhs E5,6 1
 rhs I5,6 1
 rhs E5,7 1
 rhs I5,7 1
 rhs E5,9 1
 rhs I5,9 1
 rhs E6,7 1
 rhs I6,7 1
 rhs E6,9 1
 rhs I6,9 1
 rhs E7,8 1
 rhs I7,8 1
 rhs E8,9 1
 rhs I8,9 1
BOUNDS
 LI  bound  w0,1  0.0000000
 UI  bound  w0,1  1.0000000
 LI  bound  y0,1  0.0000000
 UI  bound  y0,1  1.0000000
 LI  bound  w0,3  0.0000000
 UI  bound  w0,3  1.0000000
 LI  bound  y0,3  0.0000000
 UI  bound  y0,3  1.0000000
 LI  bound  w0,4  0.0000000
 UI  bound  w0,4  1.0000000
 LI  bound  y0,4  0.0000000
 UI  bound  y0,4  1.0000000
 LI  bound  w0,5  0.0000000
 UI  bound  w0,5  1.0000000
 LI  bound  y0,5  0.0000000
 UI  bound  y0,5  1.0000000
 LI  bound  w0,6  0.0000000
 UI  bound  w0,6  1.0000000
 LI  bound  y0,6  0.0000000
 UI  bound  y0,6  1.0000000
 LI  bound  w0,7  0.0000000
 UI  bound  w0,7  1.0000000
 LI  bound  y0,7  0.0000000
 UI  bound  y0,7  1.0000000
 LI  bound  w0,8  0.0000000
 UI  bound  w0,8  1.0000000
 LI  bound  y0,8  0.0000000
 UI  bound  y0,8  1.0000000
 LI  bound  w1,4  0.0000000
 UI  bound  w1,4  1.0000000
 LI  bound  y1,4  0.0000000
 UI  bound  y1,4  1.0000000
 LI  bound  w1,5  0.0000000
 UI  bound  w1,5  1.0000000
 LI  bound  y1,5  0.0000000
 UI  bound  y1,5  1.0000000
 LI  bound  w1,6  0.0000000
 UI  bound  w1,6  1.0000000
 LI  bound  y1,6  0.0000000
 UI  bound  y1,6  1.0000000
 LI  bound  w1,8  0.0000000
 UI  bound  w1,8  1.0000000
 LI  bound  y1,8  0.0000000
 UI  bound  y1,8  1.0000000
 LI  bound  w1,9  0.0000000
 UI  bound  w1,9  1.0000000
 LI  bound  y1,9  0.0000000
 UI  bound  y1,9  1.0000000
 LI  bound  w2,3  0.0000000
 UI  bound  w2,3  1.0000000
 LI  bound  y2,3  0.0000000
 UI  bound  y2,3  1.0000000
 LI  bound  w2,5  0.0000000
 UI  bound  w2,5  1.0000000
 LI  bound  y2,5  0.0000000
 UI  bound  y2,5  1.0000000
 LI  bound  w2,6  0.0000000
 UI  bound  w2,6  1.0000000
 LI  bound  y2,6  0.0000000
 UI  bound  y2,6  1.0000000
 LI  bound  w2,7  0.0000000
 UI  bound  w2,7  1.0000000
 LI  bound  y2,7  0.0000000
 UI  bound  y2,7  1.0000000
 LI  bound  w2,8  0.0000000
 UI  bound  w2,8  1.0000000
 LI  bound  y2,8  0.0000000
 UI  bound  y2,8  1.0000000
 LI  bound  w3,4  0.0000000
 UI  bound  w3,4  1.0000000
 LI  bound  y3,4  0.0000000
 UI  bound  y3,4  1.0000000
 LI  bound  w3,6  0.0000000
 UI  bound  w3,6  1.0000000
 LI  bound  y3,6  0.0000000
 UI  bound  y3,6  1.0000000
 LI  bound  w3,8  0.0000000
 UI  bound  w3,8  1.0000000
 LI  bound  y3,8  0.0000000
 UI  bound  y3,8  1.0000000
 LI  bound  w4,5  0.0000000
 UI  bound  w4,5  1.0000000
 LI  bound  y4,5  0.0000000
 UI  bound  y4,5  1.0000000
 LI  bound  w4,6  0.0000000
 UI  bound  w4,6  1.0000000
 LI  bound  y4,6  0.0000000
 UI  bound  y4,6  1.0000000
 LI  bound  w4,7  0.0000000
 UI  bound  w4,7  1.0000000
 LI  bound  y4,7  0.0000000
 UI  bound  y4,7  1.0000000
 LI  bound  w4,8  0.0000000
 UI  bound  w4,8  1.0000000
 LI  bound  y4,8  0.0000000
 UI  bound  y4,8  1.0000000
 LI  bound  w5,6  0.0000000
 UI  bound  w5,6  1.0000000
 LI  bound  y5,6  0.0000000
 UI  bound  y5,6  1.0000000
 LI  bound  w5,7  0.0000000
 UI  bound  w5,7  1.0000000
 LI  bound  y5,7  0.0000000
 UI  bound  y5,7  1.0000000
 LI  bound  w5,9  0.0000000
 UI  bound  w5,9  1.0000000
 LI  bound  y5,9  0.0000000
 UI  bound  y5,9  1.0000000
 LI  bound  w6,7  0.0000000
 UI  bound  w6,7  1.0000000
 LI  bound  y6,7  0.0000000
 UI  bound  y6,7  1.0000000
 LI  bound  w6,9  0.0000000
 UI  bound  w6,9  1.0000000
 LI  bound  y6,9  0.0000000
 UI  bound  y6,9  1.0000000
 LI  bound  w7,8  0.0000000
 UI  bound  w7,8  1.0000000
 LI  bound  y7,8  0.0000000
 UI  bound  y7,8  1.0000000
 LI  bound  w8,9  0.0000000
 UI  bound  w8,9  1.0000000
 LI  bound  y8,9  0.0000000
 UI  bound  y8,9  1.0000000
 LI  bound  x0  0.0000000
 UI  bound  x0  1.0000000
 LI  bound  x1  0.0000000
 UI  bound  x1  1.0000000
 LI  bound  x2  0.0000000
 UI  bound  x2  1.0000000
 LI  bound  x3  0.0000000
 UI  bound  x3  1.0000000
 LI  bound  x4  0.0000000
 UI  bound  x4  1.0000000
 LI  bound  x5  0.0000000
 UI  bound  x5  1.0000000
 LI  bound  x6  0.0000000
 UI  bound  x6  1.0000000
 LI  bound  x7  0.0000000
 UI  bound  x7  1.0000000
 LI  bound  x8  0.0000000
 UI  bound  x8  1.0000000
 LI  bound  x9  0.0000000
 UI  bound  x9  1.0000000
ENDATA